min: 31 x1_1 + 67 x1_2 + 17 x1_3 + 16 x1_4 + 97 x1_5 + 65 x1_6 + 75 x2_1 + 57 x2_2 + 81 x2_3 + 40 x2_4 + 41 x2_5 + 45 x2_6 + 2 x3_1 + 86 x3_2 + 19 x3_3 + 76 x3_4 + 88 x3_5 + 88 x3_6 + 8 x4_1 + 50 x4_2 + 1 x4_3 + 22 x4_4 + 18 x4_5 + 60 x4_6 + 21 x5_1 + 12 x5_2 + 56 x5_3 + 27 x5_4 + 6 x5_5 + 98 x5_6 + 88 x6_1 + 7 x6_2 + 86 x6_3 + 62 x6_4 + 62 x6_5 + 20 x6_6;

x1_1 + x1_2 + x1_3 + x1_4 + x1_5 + x1_6 <= 4916;
x2_1 + x2_2 + x2_3 + x2_4 + x2_5 + x2_6 <= 196;
x3_1 + x3_2 + x3_3 + x3_4 + x3_5 + x3_6 <= 2162;
x4_1 + x4_2 + x4_3 + x4_4 + x4_5 + x4_6 <= 3751;
x5_1 + x5_2 + x5_3 + x5_4 + x5_5 + x5_6 <= 757;
x6_1 + x6_2 + x6_3 + x6_4 + x6_5 + x6_6 <= 4939;

x1_1 + x2_1 + x3_1 + x4_1 + x5_1 + x6_1 >= 281;
x1_2 + x2_2 + x3_2 + x4_2 + x5_2 + x6_2 >= 2943;
x1_3 + x2_3 + x3_3 + x4_3 + x5_3 + x6_3 >= 546;
x1_4 + x2_4 + x3_4 + x4_4 + x5_4 + x6_4 >= 4529;
x1_5 + x2_5 + x3_5 + x4_5 + x5_5 + x6_5 >= 243;
x1_6 + x2_6 + x3_6 + x4_6 + x5_6 + x6_6 >= 3830;

int x1_1, x1_2, x1_3, x1_4, x1_5, x1_6, x2_1, x2_2, x2_3, x2_4, x2_5, x2_6, x3_1, x3_2, x3_3, x3_4, x3_5, x3_6, x4_1, x4_2, x4_3, x4_4, x4_5, x4_6, x5_1, x5_2, x5_3, x5_4, x5_5, x5_6, x6_1, x6_2, x6_3, x6_4, x6_5, x6_6;